c b=6,c=1025
p cnf 22 28
6 -12 0
6 -22 0
-6 12 0
-6 22 0
5 -11 0
5 -21 0
-5 11 0
-5 21 0
4 -10 0
4 -20 0
-4 10 0
-4 20 0
3 -9 0
3 -19 0
-3 9 0
-3 19 0
2 -8 0
2 -18 0
-2 8 0
-2 18 0
1 -7 0
1 -17 0
-1 7 0
-1 17 0
-13 0
-14 0
-15 0
-16 0
